RT is False
Default write of storage_offers_DA.csv just to have a file (but constraint should be inactive)
Reading model...
...model read.
creating competitive generators file...
...competitive generators recorded.
Loading data...
.. day-ahead data read.
Compiling instance...
...instance created.
Creating Offer Mitigation (model will solve as dispatch if TRUE)...
NOTE: storage offers will not be mitigated
...storage offer mitigation file created
Converting model to MPEC...
...converted
NOTE: initial MIP solve with only storage competitive to get feasible solution
Solving...

Welcome to IBM(R) ILOG(R) CPLEX(R) Interactive Optimizer 12.9.0.0
  with Simplex, Mixed Integer & Barrier Optimizers
5725-A06 5725-A29 5724-Y48 5724-Y49 5724-Y54 5724-Y55 5655-Y21
Copyright IBM Corp. 1988, 2019.  All Rights Reserved.

Type 'help' for a list of available commands.
Type 'help' followed by a command name for more
information on commands.

CPLEX> Logfile 'cplex.log' closed.
Logfile 'C:\Users\llavin\Desktop\test919\logs\tmp88t2buu3.cplex.log' open.
CPLEX> New value for parallel optimization mode: -1
CPLEX> New value for mixed integer optimality gap tolerance: 0.01
CPLEX> New value for integrality tolerance: 1e-09
CPLEX> New value for feasibility tolerance: 0.01
CPLEX> New value for deterministic time limit in ticks: 75000
CPLEX> Problem 'C:\Users\llavin\Desktop\test919\logs\tmpuc77saci.pyomo.lp' read.
Read time = 0.23 sec. (14.73 ticks)
CPLEX> Problem name         : C:\Users\llavin\Desktop\test919\logs\tmpuc77saci.pyomo.lp
Objective sense      : Maximize
Variables            :   53805  [Nneg: 1,  Box: 22000,  Free: 4464,
                                 Binary: 27340]
Objective nonzeros   :    9101
Linear constraints   :  123205  [Less: 41346,  Greater: 59096,  Equal: 22763]
  Nonzeros           :  291825
  RHS nonzeros       :   67563

Variables            : Min LB: -5000.000        Max UB: 1000000.       
Objective nonzeros   : Min   : 0.1000000        Max   : 2500.000       
Linear constraints   :
  Nonzeros           : Min   : 0.1000000        Max   : 1000000.       
  RHS nonzeros       : Min   : 0.1000000        Max   : 1000000.       
CPLEX> CPXPARAM_Parallel                                -1
CPXPARAM_Simplex_Tolerances_Feasibility          0.01
CPXPARAM_DetTimeLimit                            75000
CPXPARAM_MIP_Tolerances_MIPGap                   0.01
CPXPARAM_MIP_Tolerances_Integrality              1.0000000000000001e-09
Tried aggregator 3 times.
MIP Presolve eliminated 88315 rows and 18696 columns.
MIP Presolve added 3453 rows and 0 columns.
MIP Presolve modified 24952 coefficients.
Aggregator did 13005 substitutions.
Reduced MIP has 25338 rows, 21605 columns, and 72143 nonzeros.
Reduced MIP has 8550 binaries, 0 generals, 0 SOSs, and 0 indicators.
Presolve time = 0.30 sec. (176.67 ticks)
Probing fixed 381 vars, tightened 2858 bounds.
Probing time = 1.25 sec. (915.58 ticks)
Tried aggregator 2 times.
MIP Presolve eliminated 860 rows and 763 columns.
MIP Presolve modified 2285 coefficients.
Aggregator did 33 substitutions.
Reduced MIP has 24445 rows, 20809 columns, and 69556 nonzeros.
Reduced MIP has 8169 binaries, 0 generals, 0 SOSs, and 0 indicators.
Presolve time = 0.11 sec. (74.70 ticks)
Probing time = 0.05 sec. (16.14 ticks)
Clique table members: 6584.
MIP emphasis: balance optimality and feasibility.
MIP search method: dynamic search.
Parallel mode: opportunistic, using up to 32 threads.
Root relaxation solution time = 0.39 sec. (291.72 ticks)

        Nodes                                         Cuts/
   Node  Left     Objective  IInf  Best Integer    Best Bound    ItCnt     Gap

      0     0     3911.9507  1796                   3911.9507     6913         
      0     0     3896.6777    12                     Cuts: 9     6919         
      0     0     3896.6777    12                 Flowcuts: 2     6921         
      0     9    infeasible                           Cuts: 4     7407         
Elapsed time = 8.91 sec. (5441.03 ticks, tree = 0.02 MB, solutions = 0)
*    25+   66                         2714.0820     3886.6231            43.20%
    383    69     3457.0589     3     2714.0820     3886.6231     7646   43.20%
    592   217        cutoff           2714.0820     3886.6231     8172   43.20%
    768   244     3420.8631     1     2714.0820     3886.6231     8248   43.20%
    918   273        cutoff           2714.0820     3886.6231     8407   43.20%
   1045   375     3822.3342     1     2714.0820     3886.6231     8745   43.20%
   1161   359        cutoff           2714.0820     3886.6231     8699   43.20%
   1274   369        cutoff           2714.0820     3886.6231     8734   43.20%
   1379   389     3457.0589     3     2714.0820     3886.6231     8812   43.20%
   1714   440        cutoff           2714.0820     3886.6231     9022   43.20%
Elapsed time = 20.14 sec. (8335.73 ticks, tree = 3.60 MB, solutions = 1)
   1979   330     3838.5939     3     3445.8716     3886.6231     9628   12.79%
   2244   536     3457.0589     4     3445.8716     3886.6231     9380   12.79%
   2640   358     3883.2382     4     3445.8716     3886.6231     9509   12.79%
   3099   438     3883.2382     4     3445.8716     3886.6231    10775   12.79%
   3404   517        cutoff           3445.8716     3886.6231    11267   12.79%
   3720   696        cutoff           3445.8716     3886.6231    12272   12.79%
   4007   587        cutoff           3445.8716     3886.6231    11692   12.79%
   4354   697     3826.6424     3     3445.8716     3886.6231    12270   12.79%
   4732   752     3847.8555     3     3445.8716     3886.6231    12460   12.79%
   4936   870        cutoff           3445.8716     3886.6231    13015   12.79%
Elapsed time = 36.02 sec. (17892.21 ticks, tree = 5.99 MB, solutions = 7)
   5142   963     3883.2382     4     3445.8716     3886.6231    13436   12.79%
   5289   983     3857.0157     3     3445.8716     3886.6231    13542   12.79%
   5495  1322     3826.6352     1     3445.8716     3886.6231    14986   12.79%
   5690  1293     3869.7500     3     3445.8716     3886.6231    14876   12.79%
   5840  1116     3883.2382     3     3445.8716     3886.6231    14156   12.79%
   6001  1418        cutoff           3445.8716     3886.6231    15428   12.79%
   6137  1376        cutoff           3445.8716     3886.6231    15215   12.79%
   6262  1484        cutoff           3445.8716     3886.6231    15777   12.79%
   6405  1492        cutoff           3445.8716     3886.6231    15836   12.79%
   6546  1614     3780.0985     3     3445.8716     3886.6231    16530   12.79%
Elapsed time = 47.17 sec. (27478.79 ticks, tree = 9.68 MB, solutions = 7)
   6700  1533        cutoff           3445.8716     3886.6231    16050   12.79%
   6836  1570     3457.0589     1     3445.8716     3886.6231    16284   12.79%
   6976  1675     3826.6424     4     3445.8716     3886.6231    16778   12.79%
   7111  1659     3822.3342     1     3445.8716     3886.6231    16692   12.79%
   7237  1581     3883.2382     2     3445.8716     3886.6231    16327   12.79%
   7354  1788     3826.6352     3     3445.8716     3886.6231    17380   12.79%
   7460  1882     3883.2382     2     3445.8716     3886.6231    17925   12.79%
   7566  1836        cutoff           3445.8716     3886.6231    17606   12.79%
   7674  1965     3823.8126     1     3445.8716     3886.6231    18468   12.79%
   7791  1847        cutoff           3445.8716     3886.6231    17703   12.79%
Elapsed time = 58.52 sec. (37086.87 ticks, tree = 11.43 MB, solutions = 7)
   7903  1880     3826.6424     1     3445.8716     3886.6231    17938   12.79%
   8003  1864     3883.2382     3     3445.8716     3886.6231    17807   12.79%
   8112  1979     3883.2382     3     3445.8716     3886.6231    18546   12.79%
   8214  2126        cutoff           3445.8716     3886.6231    19393   12.79%
   8305  1986        cutoff           3445.8716     3886.6231    18597   12.79%
   8409  2043        cutoff           3445.8716     3886.6231    18950   12.79%
   8509  2198     3823.8126     1     3445.8716     3886.6231    19679   12.79%
   8608  2102        cutoff           3445.8716     3886.6231    19278   12.79%
   8701  2145     3826.6424     1     3445.8716     3886.6231    19462   12.79%
   8815  2284     3824.4709     1     3445.8716     3886.6231    19984   12.79%
Elapsed time = 66.59 sec. (46740.25 ticks, tree = 15.72 MB, solutions = 7)
   8906  2132        cutoff           3445.8716     3886.6231    19409   12.79%
   9000  2170     3883.2382     2     3445.8716     3886.6231    19598   12.79%
   9091  2169        cutoff           3445.8716     3886.6231    19599   12.79%
   9189  2175        cutoff           3445.8716     3886.6231    19621   12.79%
   9284  2171        cutoff           3445.8716     3886.6231    19603   12.79%
   9361  2329        cutoff           3445.8716     3886.6231    20188   12.79%
   9449  2475     3838.5939     1     3445.8716     3886.6231    20839   12.79%
   9529  2426     3823.8126     1     3445.8716     3886.6231    20620   12.79%
   9602  2367     3883.2382     3     3445.8716     3886.6231    20289   12.79%
   9685  2249     3759.8620     1     3445.8716     3886.6231    19888   12.79%
Elapsed time = 78.03 sec. (56381.20 ticks, tree = 15.19 MB, solutions = 7)
   9763  2309     3826.6424     1     3445.8716     3886.6231    20099   12.79%
   9833  2310     3883.2382     3     3445.8716     3886.6231    20093   12.79%
   9907  2322        cutoff           3445.8716     3886.6231    20182   12.79%
   9987  2402        cutoff           3445.8716     3886.6231    20440   12.79%
  10066  2403        cutoff           3445.8716     3886.6231    20464   12.79%
  10139  2342        cutoff           3445.8716     3886.6231    20252   12.79%
  10211  2425        cutoff           3445.8716     3886.6231    20630   12.79%
  10272  2398     3847.8555     3     3445.8716     3886.6231    20414   12.79%
  10328  2411     3883.2382     3     3445.8716     3886.6231    20508   12.79%
  10390  2428        cutoff           3445.8716     3886.6231    20607   12.79%
Elapsed time = 82.86 sec. (65992.23 ticks, tree = 16.87 MB, solutions = 7)
  10451  2444     3869.7500     3     3445.8716     3886.6231    20718   12.79%
  10517  2404        cutoff           3445.8716     3886.6231    20520   12.79%
  10579  2429     3759.8620     1     3445.8716     3886.6231    20611   12.79%
  10642  2455        cutoff           3445.8716     3886.6231    20785   12.79%
  10695  2424     3883.2382     3     3445.8716     3886.6231    20569   12.79%
  10741  2493        cutoff           3445.8716     3886.6231    20919   12.79%
  10778  2454     3883.2382     3     3445.8716     3886.6231    20740   12.79%
  10811  2490     3883.2382     3     3445.8716     3886.6231    20897   12.79%
  10841  2495     3883.2382     3     3445.8716     3886.6231    20915   12.79%
  10851  2445     3883.2382     3     3445.8716     3886.6231    20720   12.79%
Elapsed time = 87.55 sec. (75901.88 ticks, tree = 16.96 MB, solutions = 7)

Cover cuts applied:  2
Implied bound cuts applied:  1
Flow cuts applied:  9
Gomory fractional cuts applied:  5

Root node processing (before b&c):
  Real time             =    7.81 sec. (5436.62 ticks)
Parallel b&c, 32 threads:
  Real time             =   80.39 sec. (70681.03 ticks)
  Sync time (average)   =    0.70 sec.
  Wait time (average)   =    0.00 sec.
                          ------------
Total (root+branch&cut) =   88.20 sec. (76117.65 ticks)

Solution pool: 7 solutions saved.

MIP - Deterministic time limit exceeded, integer feasible:  Objective =  3.4458716373e+03
Current MIP best bound =  3.8866230611e+03 (gap = 440.751, 12.79%)
Solution time =   88.23 sec.  Iterations = 21503  Nodes = 10855 (2569)
Deterministic time = 76117.80 ticks  (862.68 ticks/sec)

CPLEX> Incumbent solution written to file 'C:\Users\llavin\Desktop\test919\logs\tmp4weikfb2.cplex.sol'.
CPLEX> NOTE: no warmstart specified for MIP iteration, default behavior is true
NOTE: resolving with all competitive generators using storage-only solution to warmstart
Solving...

Welcome to IBM(R) ILOG(R) CPLEX(R) Interactive Optimizer 12.9.0.0
  with Simplex, Mixed Integer & Barrier Optimizers
5725-A06 5725-A29 5724-Y48 5724-Y49 5724-Y54 5724-Y55 5655-Y21
Copyright IBM Corp. 1988, 2019.  All Rights Reserved.

Type 'help' for a list of available commands.
Type 'help' followed by a command name for more
information on commands.

CPLEX> Logfile 'cplex.log' closed.
Logfile 'C:\Users\llavin\Desktop\test919\logs\tmpfd_do6f6.cplex.log' open.
CPLEX> New value for parallel optimization mode: -1
CPLEX> New value for mixed integer optimality gap tolerance: 0.01
CPLEX> New value for integrality tolerance: 1e-09
CPLEX> New value for feasibility tolerance: 0.01
CPLEX> New value for deterministic time limit in ticks: 75000
CPLEX> Problem 'C:\Users\llavin\Desktop\test919\logs\tmpas4eh3vf.pyomo.lp' read.
Read time = 0.27 sec. (14.75 ticks)
CPLEX> MIP start file 'C:\Users\llavin\Desktop\test919\logs\tmpfp20bl76.cplex.mst' read.
CPLEX> Problem name         : C:\Users\llavin\Desktop\test919\logs\tmpas4eh3vf.pyomo.lp
Objective sense      : Maximize
Variables            :   54525  [Nneg: 1,  Box: 22720,  Free: 4464,
                                 Binary: 27340]
Objective nonzeros   :    9797
Linear constraints   :  123205  [Less: 41346,  Greater: 59096,  Equal: 22763]
  Nonzeros           :  291825
  RHS nonzeros       :   67563

Variables            : Min LB: -5000.000        Max UB: 1000000.       
Objective nonzeros   : Min   : 0.1000000        Max   : 2500.000       
Linear constraints   :
  Nonzeros           : Min   : 0.1000000        Max   : 1000000.       
  RHS nonzeros       : Min   : 0.1000000        Max   : 1000000.       
CPLEX> CPXPARAM_Parallel                                -1
CPXPARAM_Simplex_Tolerances_Feasibility          0.01
CPXPARAM_DetTimeLimit                            75000
CPXPARAM_MIP_Tolerances_MIPGap                   0.01
CPXPARAM_MIP_Tolerances_Integrality              1.0000000000000001e-09
Warning:  No solution found from 1 MIP starts.
Retaining values of one MIP start for possible repair.
Tried aggregator 3 times.
MIP Presolve eliminated 88315 rows and 19416 columns.
MIP Presolve added 3453 rows and 0 columns.
MIP Presolve modified 24952 coefficients.
Aggregator did 13005 substitutions.
Reduced MIP has 25338 rows, 21605 columns, and 72143 nonzeros.
Reduced MIP has 8550 binaries, 0 generals, 0 SOSs, and 0 indicators.
Presolve time = 0.30 sec. (177.04 ticks)
Probing fixed 381 vars, tightened 2858 bounds.
Probing time = 1.25 sec. (915.58 ticks)
Tried aggregator 2 times.
MIP Presolve eliminated 860 rows and 763 columns.
MIP Presolve modified 2285 coefficients.
Aggregator did 33 substitutions.
Reduced MIP has 24445 rows, 20809 columns, and 69556 nonzeros.
Reduced MIP has 8169 binaries, 0 generals, 0 SOSs, and 0 indicators.
Presolve time = 0.09 sec. (74.70 ticks)
Probing time = 0.05 sec. (16.14 ticks)
Clique table members: 6584.
MIP emphasis: balance optimality and feasibility.
MIP search method: dynamic search.
Parallel mode: opportunistic, using up to 32 threads.
Root relaxation solution time = 0.48 sec. (359.49 ticks)

        Nodes                                         Cuts/
   Node  Left     Objective  IInf  Best Integer    Best Bound    ItCnt     Gap

      0     0    75371.1230  1886                  75371.1230     7854         
      0     0    75211.8447   669                   Cuts: 730     8204         
      0     0    75211.0735   553                   Cuts: 430     8389         
      0     0    75209.3657   478                   Cuts: 290     8507         
      0     0    75206.1833   446                   Cuts: 130     8577         
      0     0    75204.4950   418                   Cuts: 141     8638         
      0     0    75204.4950   394                    Cuts: 75     8673         
      0     0    75204.4950   384                    Cuts: 36     8685         
      0     0    75204.4950   376                    Cuts: 22     8692         
      0     0    75204.4950   375                    Cuts: 17     8695         
      0     0    75204.4950   372                    Cuts: 16     8696         
Repair heuristic found nothing.
      0    12    infeasible                           Cuts: 9     8838         
Elapsed time = 10.86 sec. (6486.34 ticks, tree = 0.02 MB, solutions = 0)
    209    64    58069.5225   316                  74529.4359     9545         
    829   266    64009.7000   250                  74529.4359    13361         
   1593   778    72895.5023   320                  74331.1708    18041         
   2247  1418    51748.0868   248                  74331.1708    27220         
   2843  2258    48496.6367   253                  74331.1708    42966         
   3481  2390    61445.7099   209                  74331.1708    43549         
   4248  3283    67577.1384   289                  74331.1708    50888         
   5114  3312    67577.1384   289                  74331.1708    50888         
   6007  4465    50817.5999   149                  74331.1708    53297         
*  8239+ 1588                        68875.7649    74331.1708             7.92%
Elapsed time = 26.13 sec. (9118.85 ticks, tree = 8.06 MB, solutions = 2)
   9466  1767        cutoff          68875.7649    74331.1708    64964    7.92%
  10492   807    69600.8543    65    68875.7649    74331.1708    69713    7.92%
  11832  1099    74173.3065   105    68875.7649    74331.1708    72436    7.92%
  14518  2200    69123.4661    71    68875.7649    74331.1708    82966    7.92%
  17538  2909    69230.4667    66    68875.7649    74331.1708    88605    7.92%
  19244  4109    72440.5591   118    68875.7649    74331.1708    97466    7.92%
  19465  6834    68937.3072    96    68875.7649    74331.1708   120306    7.92%
  20595  6818    68978.3184    95    68875.7649    74331.1708   120058    7.92%
  23390  7156    69862.8691   105    68875.7649    74331.1708   122824    7.92%
  26514  7235    72177.3851   107    68875.7649    74331.1708   122734    7.92%
Elapsed time = 78.59 sec. (23014.37 ticks, tree = 69.79 MB, solutions = 3)
  29634  7862    73138.7157    93    68875.7649    74331.1708   126397    7.92%
  32713 10676    72203.4379   129    68875.7649    74331.1708   141836    7.92%
  35686 16212    71224.5571   114    68875.7649    74331.1708   176284    7.92%
  38503 14667    68914.5381    78    68875.7649    74125.5238   166981    7.62%
  41059 16395    69681.0283    99    68875.7649    74125.5238   177992    7.62%
  42999 19172    69837.4772    80    68875.7649    74125.5238   197099    7.62%
  44053 20578    69810.6269    98    68875.7649    74041.6529   208122    7.50%
  44304 25232        cutoff          68875.7649    74030.2441   241175    7.48%
  45115 25667    68920.8388    97    68875.7649    74030.2441   245005    7.48%
  46885 25264    69456.8648   109    68875.7649    74030.2441   241325    7.48%
Elapsed time = 120.44 sec. (32554.90 ticks, tree = 259.62 MB, solutions = 3)
  49252 26135    69560.1443    75    68875.7649    73945.4942   249620    7.36%
  52060 25634    71661.9823   103    68875.7649    73945.4942   245323    7.36%
  54924 26861    69462.2096   103    68875.7649    73868.9893   255528    7.25%
  57789 27500    68899.3578   122    68875.7649    73846.2760   261733    7.22%
  60666 28783    69347.0850   115    68875.7649    73774.9954   271147    7.11%
  63309 35689    69331.1647    94    68875.7649    73633.1978   319340    6.91%
  66034 39549        cutoff          68875.7649    73622.3428   348639    6.89%
  68576 34052    69224.4087    93    68875.7649    73622.3428   308296    6.89%
  70982 39278    69145.8339   115    68875.7649    73564.3088   346783    6.81%
  73165 44218    73202.4179    91    68875.7649    73564.3088   394776    6.81%
Elapsed time = 213.70 sec. (42095.15 ticks, tree = 479.88 MB, solutions = 3)
  75371 43418    69347.0850   115    68875.7649    73526.6692   386576    6.75%
  77715 45585    69080.1927    89    68875.7649    73515.7164   403928    6.74%
  79436 45734        cutoff          68875.7649    73515.7164   405749    6.74%
  80141 49604    71265.8361   124    68875.7649    73515.7164   432810    6.74%
  81194 55553    71942.4895   119    68875.7649    73515.7164   475153    6.74%
  83199 48179        cutoff          68875.7649    73515.7164   422440    6.74%
  85690 48473    71464.8303   121    68875.7649    73515.7164   424644    6.74%
  88010 61255    69511.0652    84    68875.7649    73515.7164   530061    6.74%
  90356 51251    69085.6875   108    68875.7649    73515.7164   443754    6.74%
  92837 52730    69025.3278    94    68875.7649    73515.7164   454351    6.74%
Elapsed time = 250.50 sec. (51639.27 ticks, tree = 579.19 MB, solutions = 3)
  95340 53719        cutoff          68875.7649    73515.7164   460932    6.74%
  97806 53950    68935.3422   101    68875.7649    73515.7164   463819    6.74%
  99422 65204        cutoff          68875.7649    73515.7164   599888    6.74%
  99847 58036    70850.3504    86    68875.7649    73515.7164   494656    6.74%
 100214 65727    70872.1488   112    68875.7649    73515.7164   622013    6.74%
 101200 59817    69000.9376   102    68875.7649    73515.7164   511988    6.74%
 102850 63737    71588.5405   113    68875.7649    73515.7164   564695    6.74%
 104931 59892        cutoff          68875.7649    73515.7164   512781    6.74%
 106932 64502        cutoff          68875.7649    73515.7164   580983    6.74%
 109052 62274        cutoff          68875.7649    73515.7164   544387    6.74%
Elapsed time = 251.75 sec. (61182.50 ticks, tree = 697.79 MB, solutions = 3)
 111199 63834        cutoff          68875.7649    73515.7164   566752    6.74%
 113206 63766    69121.5391   100    68875.7649    73515.7164   565093    6.74%
 114878 63201    69159.1791   102    68875.7649    73515.7164   555936    6.74%
 115934 65666    69463.5815   108    68875.7649    73515.7164   619184    6.74%
 116509 65730    70520.0879    92    68875.7649    73515.7164   619867    6.74%
 116677 67449        cutoff          68875.7649    72670.9243   681660    5.51%
 117946    61    68949.9743   117    68875.7649    72670.9243   682690    5.51%
 119849   617    69350.8171   117    68875.7649    70068.8046   694281    1.73%
 121873  1671    68920.6901    97    68875.7649    69851.5875   717353    1.42%

GUB cover cuts applied:  1
Clique cuts applied:  14
Cover cuts applied:  15
Implied bound cuts applied:  7
Flow cuts applied:  253
Mixed integer rounding cuts applied:  47
Zero-half cuts applied:  2
Gomory fractional cuts applied:  115

Root node processing (before b&c):
  Real time             =    9.34 sec. (6468.82 ticks)
Parallel b&c, 32 threads:
  Real time             =  265.02 sec. (67925.99 ticks)
  Sync time (average)   =    2.72 sec.
  Wait time (average)   =    0.44 sec.
                          ------------
Total (root+branch&cut) =  274.36 sec. (74394.80 ticks)

Solution pool: 3 solutions saved.

MIP - Integer optimal, tolerance (0.01/1e-06):  Objective =  6.8875764943e+04
Current MIP best bound =  6.9564493890e+04 (gap = 688.729, 1.00%)
Solution time =  274.39 sec.  Iterations = 723641  Nodes = 122503 (1844)
Deterministic time = 74394.96 ticks  (271.13 ticks/sec)

CPLEX> Incumbent solution written to file 'C:\Users\llavin\Desktop\test919\logs\tmpg56dacz4.cplex.sol'.
CPLEX> Exporting results... 
